c 34 Maven
c 54 AngularJS
c 29 Server
c 53 PostgreSQL
c 13 False
c 23 Consul
c 30 MessageBroker
c 59 SearchEngine
c 47 MySql
c 43 MySQL
c 9 EhCache
c 37 Client
c 16 AuthenticationType
c 15 ServerSideOption
c 60 LibSass
c 10 HibernateCache
c 39 JWT
c 32 HTTPSession
c 33 SwaggerCodegen
c 24 SQL
c 4 ApplicationType
c 44 Angular4
c 20 Uaa
c 26 Oracle12c
c 40 MicroserviceApplication
c 1 MongoDB
c 41 NoDB
c 36 ClientFrameWork
c 56 MariaDBDev
c 42 Cucumber
c 12 Application
c 52 NoHB
c 19 H2InMemory
c 57 Gatling
c 27 Oauth2
c 35 Cassandra
c 28 SocialLogIn
c 22 H2DiskBased
c 8 ProDataBaseType
c 49 ClusteredHttpSession
c 38 MsSql
c 51 MsSQL
c 25 Oracle
c 2 DataBaseType
c 50 jhipster
c 14 ServiceDiscoveryType
c 45 MicroserviceGateway
c 7 MariaDB
c 58 WebSocket
c 3 Monolithic
c 21 HazelCast
c 6 DevDataBaseType
c 11 TestFramework
c 18 BuildTool
c 48 UaaServer
c 55 Protractor
c 5 PostgreSQLDev
c 17 Gradle
c 46 Infinispan
c 31 Eureka
p cnf 61 666
-1 2 0
-3 4 0
-3 4 0
-5 6 0
-7 8 0
-9 10 0
-11 12 0
-13 14 0
-14 15 0
-3 4 0
-16 15 0
-17 18 0
-19 6 0
-20 16 0
-21 10 0
-22 6 0
-23 14 0
-24 2 0
-25 8 0
-26 6 0
-27 16 0
-28 29 0
-30 29 0
-6 15 0
-20 16 0
-31 14 0
-31 14 0
-10 15 0
-32 16 0
-33 29 0
-21 10 0
-10 15 0
-11 12 0
-13 14 0
-34 18 0
-23 14 0
-24 2 0
-31 14 0
-24 2 0
-35 2 0
-23 14 0
-36 37 0
-32 16 0
-15 29 0
-38 6 0
-10 15 0
-16 15 0
-20 16 0
-27 16 0
-34 18 0
-39 16 0
-20 16 0
-40 4 0
-18 15 0
-35 2 0
-14 15 0
-41 2 0
-17 18 0
-3 4 0
-35 2 0
-42 11 0
-43 8 0
-44 36 0
-26 6 0
-20 16 0
-9 10 0
-20 16 0
-33 29 0
-45 4 0
-19 6 0
-40 4 0
-32 16 0
-34 18 0
-34 18 0
-23 14 0
-6 15 0
-20 16 0
-46 10 0
-47 6 0
-48 4 0
-3 4 0
-34 18 0
-27 16 0
-38 6 0
-49 29 0
-37 50 0
-22 6 0
-13 14 0
-23 14 0
-17 18 0
-26 6 0
-1 2 0
-24 2 0
-51 8 0
-1 2 0
-46 10 0
-1 2 0
-46 10 0
-27 16 0
-25 8 0
-28 29 0
-23 14 0
-20 16 0
-40 4 0
-27 16 0
-25 8 0
-52 10 0
-5 6 0
-46 10 0
-53 8 0
-19 6 0
-24 2 0
-17 18 0
-26 6 0
-1 2 0
-7 8 0
-20 16 0
-17 18 0
-7 8 0
-10 15 0
-16 15 0
-38 6 0
-1 2 0
-22 6 0
-32 16 0
-1 2 0
-53 8 0
-35 2 0
-25 8 0
-15 29 0
-43 8 0
-35 2 0
-54 36 0
-9 10 0
-55 11 0
-43 8 0
-21 10 0
-24 2 0
-2 15 0
-18 15 0
-20 16 0
-35 2 0
-9 10 0
-42 11 0
-23 14 0
-56 6 0
-19 6 0
-35 2 0
-5 6 0
-13 14 0
-9 10 0
-24 2 0
-49 29 0
-5 6 0
-24 2 0
-49 29 0
-53 8 0
-52 10 0
-55 11 0
-13 14 0
-46 10 0
-32 16 0
-30 29 0
-5 6 0
-15 29 0
-4 12 0
-19 6 0
-13 14 0
-1 2 0
-32 16 0
-32 16 0
-31 14 0
-35 2 0
-1 2 0
-20 16 0
-9 10 0
-1 2 0
-19 6 0
-20 16 0
-24 2 0
-39 16 0
-40 4 0
-32 16 0
-19 6 0
-32 16 0
-27 16 0
-26 6 0
-9 10 0
-41 2 0
-34 18 0
-22 6 0
-45 4 0
-56 6 0
-36 37 0
-13 14 0
-51 8 0
-35 2 0
-1 2 0
-56 6 0
-34 18 0
-25 8 0
-48 4 0
-10 15 0
-4 12 0
-9 10 0
-21 10 0
-17 18 0
-52 10 0
-39 16 0
-23 14 0
-27 16 0
-21 10 0
-8 15 0
-30 29 0
-34 18 0
-34 18 0
-54 36 0
-32 16 0
-21 10 0
-8 15 0
-52 10 0
-39 16 0
-6 15 0
-17 18 0
-57 11 0
-17 18 0
-35 2 0
-23 14 0
-31 14 0
-31 14 0
-13 14 0
-52 10 0
-27 16 0
-41 2 0
-27 16 0
-9 10 0
-58 29 0
-34 18 0
-38 6 0
-29 50 0
-31 14 0
-45 4 0
-8 15 0
-45 4 0
-27 16 0
-27 16 0
-38 6 0
-14 15 0
-22 6 0
-46 10 0
-55 11 0
-54 36 0
-21 10 0
-18 15 0
-35 2 0
-13 14 0
-13 14 0
-16 15 0
-51 8 0
-57 11 0
-14 15 0
-14 15 0
-2 15 0
-13 14 0
-35 2 0
-31 14 0
-48 4 0
-41 2 0
-24 2 0
-38 6 0
-17 18 0
-39 16 0
-1 2 0
-16 15 0
-17 18 0
-48 4 0
-25 8 0
-47 6 0
-52 10 0
-39 16 0
-38 6 0
-52 10 0
-35 2 0
-39 16 0
-39 16 0
-9 10 0
-53 8 0
-59 29 0
-4 12 0
-2 15 0
-1 2 0
-32 16 0
-10 15 0
-25 8 0
-23 14 0
-34 18 0
-14 15 0
-33 29 0
-57 11 0
-34 18 0
-49 29 0
-59 29 0
-9 10 0
-27 16 0
-13 14 0
-39 16 0
-41 2 0
-45 4 0
-41 2 0
-34 18 0
-42 11 0
-23 14 0
-46 10 0
-20 16 0
-18 15 0
-4 12 0
-26 6 0
-12 50 0
-12 50 0
-14 15 0
-7 8 0
-55 11 0
-39 16 0
-38 6 0
-7 8 0
-15 29 0
-46 10 0
-53 8 0
-58 29 0
-16 15 0
-55 11 0
-28 29 0
-35 2 0
-8 15 0
-44 36 0
-28 29 0
-18 15 0
-6 15 0
-41 2 0
-21 10 0
-13 14 0
-26 6 0
-39 16 0
-20 16 0
-52 10 0
-23 14 0
-52 10 0
-43 8 0
-30 29 0
-32 16 0
-5 6 0
-47 6 0
-25 8 0
-17 18 0
-55 11 0
-33 29 0
-42 11 0
-42 11 0
-2 15 0
-13 14 0
-58 29 0
-21 10 0
-40 4 0
-6 15 0
-24 2 0
-21 10 0
-9 10 0
-5 6 0
-23 14 0
-57 11 0
-24 2 0
-27 16 0
-21 10 0
-31 14 0
-37 50 0
-44 36 0
-6 15 0
-32 16 0
-13 14 0
-8 15 0
-20 16 0
-52 10 0
-11 12 0
-22 6 0
-41 2 0
-8 15 0
-24 2 0
-21 10 0
-1 2 0
-3 4 0
-8 15 0
-24 2 0
-39 16 0
-32 16 0
-45 4 0
-3 4 0
-51 8 0
-57 11 0
-24 2 0
-59 29 0
-46 10 0
-56 6 0
-53 8 0
-40 4 0
-55 11 0
-51 8 0
-23 14 0
-35 2 0
-56 6 0
-2 15 0
-39 16 0
-17 18 0
-57 11 0
-35 2 0
-13 14 0
-60 37 0
-57 11 0
-48 4 0
-7 8 0
-11 12 0
-45 4 0
-2 15 0
-7 8 0
-51 8 0
-8 15 0
-16 15 0
-20 16 0
-18 15 0
-21 10 0
-31 14 0
-31 14 0
-21 10 0
-29 50 0
-26 6 0
-41 2 0
-9 10 0
-41 2 0
-43 8 0
-39 16 0
-56 6 0
-46 10 0
-52 10 0
-47 6 0
-48 4 0
-52 10 0
-27 16 0
-53 8 0
-31 14 0
-60 37 0
-52 10 0
-9 10 0
-42 11 0
-31 14 0
-32 16 0
-22 6 0
-17 18 0
-43 8 0
-9 10 0
-14 15 0
-31 14 0
-42 11 0
-53 8 0
-47 6 0
-27 16 0
-40 4 0
-2 15 0
-41 2 0
-58 29 0
-5 6 0
-41 2 0
-47 6 0
-46 10 0
-17 18 0
-32 16 0
-47 6 0
-6 15 0
-16 15 0
-51 8 0
-23 14 0
-9 10 0
-21 10 0
-41 2 0
-39 16 0
-46 10 0
-3 4 0
-24 2 0
-46 10 0
-57 11 0
-6 15 0
-1 2 0
-46 10 0
-44 36 0
-46 10 0
-18 15 0
-17 18 0
-2 15 0
-43 8 0
-31 14 0
-22 6 0
-23 14 0
-55 11 0
-56 6 0
-19 6 0
-21 10 0
-52 10 0
-31 14 0
-48 4 0
-51 8 0
-10 15 0
-10 15 0
-34 18 0
-46 10 0
-34 18 0
-7 8 0
-45 4 0
-34 18 0
-47 6 0
-40 4 0
-17 18 0
-41 2 0
-27 16 0
-43 8 0
-48 4 0
-54 36 0
-59 29 0
-1 2 0
-56 6 0
-41 2 0
-52 10 0
-18 15 0
-39 16 0
-42 11 0
-41 2 0
-52 10 0
50 0
-8 43 51 25 7 53 0
-51 -25 0
-25 -53 0
-43 -25 0
-43 -51 0
-43 -53 0
-43 -7 0
-25 -7 0
-51 -7 0
-51 -53 0
-7 -53 0
-15 14 0
-14 23 31 13 0
-23 -13 0
-31 -13 0
-23 -31 0
-15 2 0
-36 54 44 0
-54 -44 0
-15 10 0
-2 24 41 35 1 0
-24 -1 0
-24 -35 0
-41 -35 0
-24 -41 0
-41 -1 0
-35 -1 0
-50 29 0
-18 17 34 0
-17 -34 0
-15 18 0
61 50 0
-15 16 0
-50 12 0
-12 4 0
-6 26 19 5 56 38 47 22 0
-56 -22 0
-26 -5 0
-38 -47 0
-26 -47 0
-26 -19 0
-56 -38 0
-5 -56 0
-19 -38 0
-19 -56 0
-38 -22 0
-47 -22 0
-19 -47 0
-26 -22 0
-19 -22 0
-5 -22 0
-56 -47 0
-19 -5 0
-5 -47 0
-26 -38 0
-5 -38 0
-26 -56 0
-16 32 20 27 39 0
-32 -20 0
-20 -27 0
-32 -27 0
-32 -39 0
-20 -39 0
-27 -39 0
-10 46 52 21 9 0
-46 -9 0
-52 -21 0
-52 -9 0
-46 -52 0
-21 -9 0
-46 -21 0
-4 45 3 40 48 0
-45 -3 0
-45 -48 0
-3 -48 0
-40 -48 0
-45 -40 0
-3 -40 0
-12 11 0
-37 36 0
-29 15 0
-25 0
-24 -25 22 19 26 0
-3 -20 0
-24 -43 22 19 47 0
-1 45 52 0
-35 45 52 0
-41 52 0
-26 0
-48 20 0
40 20 -41 0
40 45 -41 0
-3 13 31 0
24 -59 0
-24 -51 22 19 38 0
-24 -7 22 19 56 0
-45 21 0
-24 8 0
-27 24 1 0
-40 -37 0
-40 42 0
-40 57 0
-40 -55 0
-48 -37 0
-48 42 0
-48 57 0
-48 -55 0
-24 -53 22 19 5 0
-35 -28 0
3 -28 0
32 39 -28 0
-45 39 20 0
-40 39 20 0
-1 -6 0
-1 -8 0
-35 -6 0
-35 -8 0
-41 -6 0
-41 -8 0
3 45 -49 0
52 21 -49 0
-31 20 39 0
-3 37 0
-3 42 0
-3 55 0
-3 57 0
-45 37 0
-45 42 0
-45 55 0
-45 57 0
3 45 -58 0
